solution status: optimal solution found
objective value:                            34666.837
y$1                                                 1 	(obj:5700)
y$2                                                 1 	(obj:5700)
y$3                                                 1 	(obj:5700)
y$4                                                 1 	(obj:5700)
y$5                                                 1 	(obj:5700)
y$6                                                 1 	(obj:5700)
x$1$2                                               1 	(obj:3.009)
x$2$4                                               1 	(obj:7.752)
x$3$1                                               1 	(obj:2.669)
x$4$6                                               1 	(obj:12.597)
x$5$6                                               1 	(obj:14.773)
x$6$6                                               1 	(obj:14.365)
x$7$6                                               1 	(obj:5.321)
x$8$6                                               1 	(obj:3.179)
x$9$3                                               1 	(obj:4.233)
x$10$4                                              1 	(obj:5.491)
x$11$3                                              1 	(obj:6.205)
x$12$3                                              1 	(obj:15.062)
x$13$5                                              1 	(obj:13.464)
x$14$2                                              1 	(obj:2.516)
x$15$2                                              1 	(obj:2.669)
x$16$2                                              1 	(obj:1.904)
x$17$4                                              1 	(obj:7.718)
x$18$4                                              1 	(obj:3.859)
x$19$4                                              1 	(obj:1.19)
x$20$4                                              1 	(obj:1.887)
x$21$3                                              1 	(obj:3.604)
x$22$3                                              1 	(obj:20.808)
x$23$3                                              1 	(obj:26.843)
x$24$5                                              1 	(obj:26.146)
x$25$5                                              1 	(obj:25.534)
x$26$6                                              1 	(obj:18.088)
x$27$6                                              1 	(obj:12.223)
x$28$6                                              1 	(obj:24.072)
x$29$4                                              1 	(obj:8.891)
x$30$2                                              1 	(obj:5.253)
x$31$4                                              1 	(obj:3.128)
x$32$3                                              1 	(obj:6.732)
x$33$3                                              1 	(obj:3.162)
x$34$5                                              1 	(obj:4.947)
x$35$5                                              1 	(obj:5.338)
x$36$5                                              1 	(obj:9.333)
x$37$5                                              1 	(obj:14.994)
x$38$6                                              1 	(obj:8.262)
x$39$5                                              1 	(obj:17.017)
x$40$4                                              1 	(obj:6.698)
x$41$5                                              1 	(obj:1.598)
x$42$2                                              1 	(obj:1.462)
x$43$2                                              1 	(obj:2.465)
x$44$2                                              1 	(obj:3.536)
x$45$2                                              1 	(obj:7.531)
x$46$1                                              1 	(obj:2.159)
x$47$1                                              1 	(obj:2.55)
x$48$2                                              1 	(obj:9.299)
x$49$1                                              1 	(obj:5.304)
x$50$1                                              1 	(obj:4.59)
x$51$1                                              1 	(obj:4.658)
x$52$1                                              1 	(obj:7.004)
x$53$1                                              1 	(obj:3.893)
x$54$1                                              1 	(obj:2.261)
x$55$1                                              1 	(obj:13.702)
x$56$6                                              1 	(obj:13.889)
